unknown
(model
; cardinality of BoundSet is 3
(declare-sort BoundSet 0)
; rep: @uc_BoundSet_0
; rep: @uc_BoundSet_1
; rep: @uc_BoundSet_2
; cardinality of UnboundSet is 1
(declare-sort UnboundSet 0)
(declare-fun groundTerm_4 () UnboundSet)
(define-fun IsDusty ((BOUND_VARIABLE_447 BoundSet)) Bool true)
(define-fun IsRunning ((BOUND_VARIABLE_447 BoundSet)) Bool true)
(define-fun IsOnPath ((BOUND_VARIABLE_454 BoundSet) (BOUND_VARIABLE_455 BoundSet)) Bool true)
(define-fun IsInGrass ((BOUND_VARIABLE_454 BoundSet) (BOUND_VARIABLE_455 BoundSet)) Bool true)
(define-fun IsOutside ((BOUND_VARIABLE_447 BoundSet)) Bool false)
)
sat
(model
; cardinality of BoundSet is 1
(declare-sort BoundSet 0)
; rep: @uc_BoundSet_0
; cardinality of UnboundSet is 1
(declare-sort UnboundSet 0)
(declare-fun groundTerm_6 () UnboundSet)
(define-fun IsDusty ((BOUND_VARIABLE_467 BoundSet)) Bool true)
(define-fun IsRunning ((BOUND_VARIABLE_467 BoundSet)) Bool true)
(define-fun IsOnPath ((BOUND_VARIABLE_474 BoundSet) (BOUND_VARIABLE_475 BoundSet)) Bool true)
(define-fun IsInGrass ((BOUND_VARIABLE_474 BoundSet) (BOUND_VARIABLE_475 BoundSet)) Bool true)
(define-fun IsOutside ((BOUND_VARIABLE_467 BoundSet)) Bool false)
)
